
Route #1: 10 61 18 50 33 47 48 24 
Route #2: 8 62 52 49 43 
Route #3: 11 56 16 54 41 31 46 30 
Route #4: 37 32 34 38 27 40 
Route #5: 21 44 45 53 58 6 20 3 
Route #6: 26 39 42 63 2 23 25 
Route #7: 7 57 15 51 14 59 35 4 22 9 
Route #8: 17 55 36 60 19 5 
Route #9: 1 12 28 13 29 
cost 1328.02
total time is 6.4